# Solution for model DIAM
# Objective value = 3
diameter 3
dist#0#1#2 1
dist#0#1#1 0
dist#0#1#0 0
dist#0#2#2 1
dist#0#2#1 0
dist#0#2#0 0
dist#0#3#2 1
dist#0#3#1 1
dist#0#3#0 0
dist#0#4#2 1
dist#0#4#1 0
dist#0#4#0 0
dist#0#5#2 1
dist#0#5#1 0
dist#0#5#0 0
dist#0#6#2 1
dist#0#6#1 0
dist#0#6#0 0
dist#0#7#2 0
dist#0#7#1 1
dist#0#7#0 0
dist#0#8#2 1
dist#0#8#1 1
dist#0#8#0 0
dist#0#9#2 1
dist#0#9#1 0
dist#0#9#0 0
dist#0#10#2 0
dist#0#10#1 1
dist#0#10#0 0
dist#0#11#2 1
dist#0#11#1 0
dist#0#11#0 0
dist#0#12#2 0
dist#0#12#1 1
dist#0#12#0 0
dist#0#13#2 0
dist#0#13#1 1
dist#0#13#0 0
dist#0#14#2 1
dist#0#14#1 1
dist#0#14#0 1
dist#0#15#2 1
dist#0#15#1 0
dist#0#15#0 1
dist#0#16#2 0
dist#0#16#1 1
dist#0#16#0 0
dist#0#17#2 0
dist#0#17#1 0
dist#0#17#0 1
dist#0#18#2 0
dist#0#18#1 1
dist#0#18#0 0
dist#0#19#2 0
dist#0#19#1 1
dist#0#19#0 1
dist#1#2#2 1
dist#1#2#1 1
dist#1#2#0 0
dist#1#3#2 1
dist#1#3#1 0
dist#1#3#0 0
dist#1#4#2 1
dist#1#4#1 0
dist#1#4#0 0
dist#1#5#2 1
dist#1#5#1 0
dist#1#5#0 0
dist#1#6#2 1
dist#1#6#1 1
dist#1#6#0 0
dist#1#7#2 1
dist#1#7#1 1
dist#1#7#0 0
dist#1#8#2 1
dist#1#8#1 1
dist#1#8#0 0
dist#1#9#2 1
dist#1#9#1 0
dist#1#9#0 1
dist#1#10#2 0
dist#1#10#1 0
dist#1#10#0 1
dist#1#11#2 1
dist#1#11#1 0
dist#1#11#0 0
dist#1#12#2 0
dist#1#12#1 1
dist#1#12#0 1
dist#1#13#2 0
dist#1#13#1 1
dist#1#13#0 0
dist#1#14#2 1
dist#1#14#1 1
dist#1#14#0 0
dist#1#15#2 0
dist#1#15#1 1
dist#1#15#0 0
dist#1#16#2 1
dist#1#16#1 0
dist#1#16#0 0
dist#1#17#2 1
dist#1#17#1 1
dist#1#17#0 0
dist#1#18#2 1
dist#1#18#1 0
dist#1#18#0 1
dist#1#19#2 1
dist#1#19#1 0
dist#1#19#0 0
dist#2#3#2 1
dist#2#3#1 0
dist#2#3#0 1
dist#2#4#2 1
dist#2#4#1 0
dist#2#4#0 1
dist#2#5#2 0
dist#2#5#1 1
dist#2#5#0 0
dist#2#6#2 0
dist#2#6#1 1
dist#2#6#0 1
dist#2#7#2 1
dist#2#7#1 0
dist#2#7#0 0
dist#2#8#2 1
dist#2#8#1 0
dist#2#8#0 0
dist#2#9#2 1
dist#2#9#1 0
dist#2#9#0 0
dist#2#10#2 0
dist#2#10#1 1
dist#2#10#0 0
dist#2#11#2 1
dist#2#11#1 0
dist#2#11#0 0
dist#2#12#2 1
dist#2#12#1 0
dist#2#12#0 0
dist#2#13#2 1
dist#2#13#1 0
dist#2#13#0 0
dist#2#14#2 1
dist#2#14#1 0
dist#2#14#0 0
dist#2#15#2 1
dist#2#15#1 1
dist#2#15#0 0
dist#2#16#2 1
dist#2#16#1 0
dist#2#16#0 0
dist#2#17#2 0
dist#2#17#1 1
dist#2#17#0 0
dist#2#18#2 0
dist#2#18#1 1
dist#2#18#0 1
dist#2#19#2 0
dist#2#19#1 1
dist#2#19#0 0
dist#3#4#2 0
dist#3#4#1 1
dist#3#4#0 0
dist#3#5#2 1
dist#3#5#1 0
dist#3#5#0 1
dist#3#6#2 1
dist#3#6#1 0
dist#3#6#0 0
dist#3#7#2 1
dist#3#7#1 0
dist#3#7#0 0
dist#3#8#2 1
dist#3#8#1 0
dist#3#8#0 0
dist#3#9#2 1
dist#3#9#1 1
dist#3#9#0 0
dist#3#10#2 1
dist#3#10#1 0
dist#3#10#0 0
dist#3#11#2 1
dist#3#11#1 1
dist#3#11#0 0
dist#3#12#2 1
dist#3#12#1 0
dist#3#12#0 0
dist#3#13#2 1
dist#3#13#1 0
dist#3#13#0 0
dist#3#14#2 1
dist#3#14#1 0
dist#3#14#0 0
dist#3#15#2 0
dist#3#15#1 1
dist#3#15#0 1
dist#3#16#2 1
dist#3#16#1 1
dist#3#16#0 0
dist#3#17#2 0
dist#3#17#1 1
dist#3#17#0 1
dist#3#18#2 0
dist#3#18#1 1
dist#3#18#0 0
dist#3#19#2 1
dist#3#19#1 0
dist#3#19#0 0
dist#4#5#2 0
dist#4#5#1 1
dist#4#5#0 1
dist#4#6#2 1
dist#4#6#1 1
dist#4#6#0 0
dist#4#7#2 0
dist#4#7#1 1
dist#4#7#0 0
dist#4#8#2 0
dist#4#8#1 0
dist#4#8#0 1
dist#4#9#2 1
dist#4#9#1 0
dist#4#9#0 0
dist#4#10#2 1
dist#4#10#1 0
dist#4#10#0 0
dist#4#11#2 1
dist#4#11#1 1
dist#4#11#0 0
dist#4#12#2 1
dist#4#12#1 0
dist#4#12#0 0
dist#4#13#2 1
dist#4#13#1 0
dist#4#13#0 0
dist#4#14#2 1
dist#4#14#1 1
dist#4#14#0 0
dist#4#15#2 1
dist#4#15#1 1
dist#4#15#0 0
dist#4#16#2 0
dist#4#16#1 1
dist#4#16#0 1
dist#4#17#2 1
dist#4#17#1 0
dist#4#17#0 0
dist#4#18#2 1
dist#4#18#1 1
dist#4#18#0 0
dist#4#19#2 1
dist#4#19#1 0
dist#4#19#0 0
dist#5#6#2 1
dist#5#6#1 0
dist#5#6#0 0
dist#5#7#2 0
dist#5#7#1 0
dist#5#7#0 1
dist#5#8#2 0
dist#5#8#1 1
dist#5#8#0 0
dist#5#9#2 1
dist#5#9#1 0
dist#5#9#0 0
dist#5#10#2 1
dist#5#10#1 0
dist#5#10#0 0
dist#5#11#2 1
dist#5#11#1 1
dist#5#11#0 0
dist#5#12#2 0
dist#5#12#1 1
dist#5#12#0 0
dist#5#13#2 0
dist#5#13#1 0
dist#5#13#0 1
dist#5#14#2 1
dist#5#14#1 1
dist#5#14#0 0
dist#5#15#2 1
dist#5#15#1 0
dist#5#15#0 0
dist#5#16#2 1
dist#5#16#1 1
dist#5#16#0 0
dist#5#17#2 1
dist#5#17#1 0
dist#5#17#0 0
dist#5#18#2 1
dist#5#18#1 1
dist#5#18#0 0
dist#5#19#2 1
dist#5#19#1 1
dist#5#19#0 0
dist#6#7#2 0
dist#6#7#1 1
dist#6#7#0 0
dist#6#8#2 0
dist#6#8#1 1
dist#6#8#0 0
dist#6#9#2 1
dist#6#9#1 0
dist#6#9#0 1
dist#6#10#2 0
dist#6#10#1 0
dist#6#10#0 1
dist#6#11#2 1
dist#6#11#1 0
dist#6#11#0 0
dist#6#12#2 0
dist#6#12#1 0
dist#6#12#0 1
dist#6#13#2 1
dist#6#13#1 0
dist#6#13#0 0
dist#6#14#2 1
dist#6#14#1 1
dist#6#14#0 0
dist#6#15#2 0
dist#6#15#1 1
dist#6#15#0 0
dist#6#16#2 1
dist#6#16#1 0
dist#6#16#0 0
dist#6#17#2 1
dist#6#17#1 1
dist#6#17#0 0
dist#6#18#2 1
dist#6#18#1 0
dist#6#18#0 0
dist#6#19#2 1
dist#6#19#1 0
dist#6#19#0 0
dist#7#8#2 1
dist#7#8#1 1
dist#7#8#0 0
dist#7#9#2 1
dist#7#9#1 0
dist#7#9#0 0
dist#7#10#2 1
dist#7#10#1 0
dist#7#10#0 0
dist#7#11#2 1
dist#7#11#1 1
dist#7#11#0 1
dist#7#12#2 0
dist#7#12#1 1
dist#7#12#0 1
dist#7#13#2 1
dist#7#13#1 1
dist#7#13#0 0
dist#7#14#2 1
dist#7#14#1 0
dist#7#14#0 0
dist#7#15#2 1
dist#7#15#1 0
dist#7#15#0 0
dist#7#16#2 1
dist#7#16#1 0
dist#7#16#0 0
dist#7#17#2 1
dist#7#17#1 1
dist#7#17#0 0
dist#7#18#2 1
dist#7#18#1 0
dist#7#18#0 0
dist#7#19#2 0
dist#7#19#1 0
dist#7#19#0 1
dist#8#9#2 1
dist#8#9#1 1
dist#8#9#0 1
dist#8#10#2 1
dist#8#10#1 0
dist#8#10#0 0
dist#8#11#2 1
dist#8#11#1 0
dist#8#11#0 0
dist#8#12#2 1
dist#8#12#1 0
dist#8#12#0 0
dist#8#13#2 1
dist#8#13#1 0
dist#8#13#0 0
dist#8#14#2 1
dist#8#14#1 0
dist#8#14#0 1
dist#8#15#2 0
dist#8#15#1 1
dist#8#15#0 0
dist#8#16#2 1
dist#8#16#1 0
dist#8#16#0 0
dist#8#17#2 1
dist#8#17#1 0
dist#8#17#0 0
dist#8#18#2 1
dist#8#18#1 1
dist#8#18#0 0
dist#8#19#2 0
dist#8#19#1 1
dist#8#19#0 1
dist#9#10#2 0
dist#9#10#1 1
dist#9#10#0 0
dist#9#11#2 1
dist#9#11#1 0
dist#9#11#0 0
dist#9#12#2 0
dist#9#12#1 1
dist#9#12#0 0
dist#9#13#2 1
dist#9#13#1 0
dist#9#13#0 0
dist#9#14#2 1
dist#9#14#1 0
dist#9#14#0 0
dist#9#15#2 0
dist#9#15#1 0
dist#9#15#0 1
dist#9#16#2 0
dist#9#16#1 1
dist#9#16#0 0
dist#9#17#2 1
dist#9#17#1 0
dist#9#17#0 0
dist#9#18#2 1
dist#9#18#1 0
dist#9#18#0 0
dist#9#19#2 0
dist#9#19#1 1
dist#9#19#0 0
dist#10#11#2 0
dist#10#11#1 1
dist#10#11#0 1
dist#10#12#2 0
dist#10#12#1 1
dist#10#12#0 0
dist#10#13#2 1
dist#10#13#1 1
dist#10#13#0 0
dist#10#14#2 0
dist#10#14#1 1
dist#10#14#0 1
dist#10#15#2 1
dist#10#15#1 0
dist#10#15#0 0
dist#10#16#2 1
dist#10#16#1 1
dist#10#16#0 0
dist#10#17#2 1
dist#10#17#1 0
dist#10#17#0 0
dist#10#18#2 1
dist#10#18#1 0
dist#10#18#0 0
dist#10#19#2 1
dist#10#19#1 0
dist#10#19#0 0
dist#11#12#2 0
dist#11#12#1 1
dist#11#12#0 0
dist#11#13#2 1
dist#11#13#1 0
dist#11#13#0 0
dist#11#14#2 1
dist#11#14#1 1
dist#11#14#0 0
dist#11#15#2 0
dist#11#15#1 1
dist#11#15#0 0
dist#11#16#2 1
dist#11#16#1 0
dist#11#16#0 1
dist#11#17#2 0
dist#11#17#1 0
dist#11#17#0 1
dist#11#18#2 1
dist#11#18#1 0
dist#11#18#0 0
dist#11#19#2 1
dist#11#19#1 1
dist#11#19#0 0
dist#12#13#2 1
dist#12#13#1 0
dist#12#13#0 0
dist#12#14#2 1
dist#12#14#1 0
dist#12#14#0 0
dist#12#15#2 1
dist#12#15#1 0
dist#12#15#0 0
dist#12#16#2 1
dist#12#16#1 0
dist#12#16#0 0
dist#12#17#2 1
dist#12#17#1 1
dist#12#17#0 1
dist#12#18#2 1
dist#12#18#1 0
dist#12#18#0 0
dist#12#19#2 0
dist#12#19#1 1
dist#12#19#0 0
dist#13#14#2 1
dist#13#14#1 1
dist#13#14#0 1
dist#13#15#2 1
dist#13#15#1 0
dist#13#15#0 0
dist#13#16#2 1
dist#13#16#1 1
dist#13#16#0 1
dist#13#17#2 1
dist#13#17#1 0
dist#13#17#0 0
dist#13#18#2 0
dist#13#18#1 0
dist#13#18#0 1
dist#13#19#2 1
dist#13#19#1 0
dist#13#19#0 0
dist#14#15#2 1
dist#14#15#1 0
dist#14#15#0 0
dist#14#16#2 1
dist#14#16#1 0
dist#14#16#0 0
dist#14#17#2 0
dist#14#17#1 1
dist#14#17#0 0
dist#14#18#2 1
dist#14#18#1 1
dist#14#18#0 0
dist#14#19#2 1
dist#14#19#1 0
dist#14#19#0 0
dist#15#16#2 0
dist#15#16#1 0
dist#15#16#0 1
dist#15#17#2 1
dist#15#17#1 0
dist#15#17#0 0
dist#15#18#2 1
dist#15#18#1 0
dist#15#18#0 0
dist#15#19#2 1
dist#15#19#1 0
dist#15#19#0 0
dist#16#17#2 1
dist#16#17#1 1
dist#16#17#0 0
dist#16#18#2 1
dist#16#18#1 1
dist#16#18#0 0
dist#16#19#2 1
dist#16#19#1 0
dist#16#19#0 0
dist#17#18#2 1
dist#17#18#1 0
dist#17#18#0 0
dist#17#19#2 1
dist#17#19#1 0
dist#17#19#0 0
dist#18#19#2 1
dist#18#19#1 0
dist#18#19#0 1
